c preprocessed version of BN_95, 44 vertices, 220 edges
p td 44 220
0 1
0 14
0 3
0 16
25 0
15 0
24 0
32 0
30 0
2 1
1 14
1 3
1 9
1 5
1 4
1 8
15 1
34 1
35 1
24 1
31 1
30 1
2 3
2 6
25 2
15 2
24 2
3 4
15 3
12 3
35 3
24 3
32 3
5 4
14 4
4 17
4 23
4 22
12 4
35 4
37 4
38 4
36 4
6 5
16 5
5 13
5 28
5 10
5 17
5 18
15 5
11 5
26 5
36 5
6 7
15 6
12 6
24 6
37 6
11 6
36 6
7 8
7 9
20 7
7 10
7 22
7 21
37 7
36 7
8 9
13 8
8 27
8 10
25 8
34 8
35 8
26 8
10 9
31 9
30 9
11 10
28 10
11 12
11 20
11 19
11 28
37 11
38 11
12 13
12 23
12 24
12 27
12 20
12 35
12 28
12 19
12 29
31 12
30 12
14 13
13 18
13 28
13 27
13 19
25 13
26 13
36 13
15 14
14 23
14 22
14 21
14 19
33 14
37 14
38 14
36 14
15 16
15 17
15 20
15 25
15 29
24 15
16 17
29 16
24 16
26 16
30 16
17 18
26 17
36 17
19 18
26 18
20 19
20 21
20 22
29 20
22 21
33 21
36 21
23 22
24 23
31 23
24 25
35 24
31 24
26 25
26 27
26 29
26 32
26 31
30 26
27 28
30 29
30 31
30 36
30 38
31 32
32 33
32 34
34 33
36 33
35 34
36 37
38 36
38 37
39 0
39 2
39 3
39 40
39 42
39 16
39 15
39 25
39 24
39 26
39 32
39 41
40 0
40 2
40 43
40 42
40 25
40 24
40 41
41 0
41 2
41 43
41 42
41 30
41 13
41 19
41 18
41 29
41 12
41 24
41 38
41 36
42 0
42 1
42 8
42 27
42 6
42 5
42 4
42 13
42 12
42 11
42 26
42 36
43 39
43 42
43 0
43 2
43 3
43 6
43 5
43 15
43 24
43 32
43 30
